# Solution for model r5_t18_m3_9
# Finished Task: 18 / 18
# Makespan: 657.0, Total Distance: 997.0, Total Time: 0.2354
# R O S F
0 0 12 0.0 0.0
1 1 8 0.0 0.0
2 2 18 0.0 0.0
3 3 14 0.0 0.0
4 4 19 0.0 0.0
5 2 -1 568.0 594.0
6 0 22 469.0 503.0
7 1 9 393.0 426.0
8 1 7 269.0 301.0
9 1 10 463.0 488.0
10 1 -1 634.0 657.0
11 4 -1 548.0 579.0
12 0 15 206.0 244.0
13 2 17 393.0 432.0
14 3 20 293.0 326.0
15 0 16 363.0 393.0
16 0 6 426.0 455.0
17 2 5 464.0 492.0
18 2 13 235.0 271.0
19 4 11 455.0 480.0
20 3 21 501.0 539.0
21 3 -1 597.0 634.0
22 0 -1 594.0 616.0
